data;

param num_top:=3;

#nodes and edges of the physical network
param n := 10;

set E := (1,2) (1,3) (1,7) (2,4) (2,7) (3,5) (4,8) (5,6) (5,7) (6,7) (6,9) (7,8) (7,9) (8,10) (9,10) ;

#nodes and edges of the virtual networks
set Nl[1] := 8 4 6 2 7 ;
set Nl[2] := 2 6 9 10 3 ;
set Nl[3] := 5 9 3 7 4 ;

set El[1] := (4,8) (4,6) (2,6) (2,7) (7,8) (4,7) (2,4) (6,8) (2,8) (6,7) ;
set El[2] := (2,6) (6,9) (9,10) (3,10) (2,3) (2,9) (6,10) (3,6) (3,9) (2,10) ;
set El[3] := (5,9) (3,9) (3,7) (4,7) (4,5) (3,5) (7,9) (3,4) (4,9) (5,7) ;
